30 None
20
11 30 0 0
4 3 11 0
4 4 15 0
4 6 19 0
4 8 23 0
4 9 11 3
3 3 27 0
3 4 27 3
3 5 15 4
3 6 18 6
3 7 27 7
3 8 21 8
3 9 24 8
3 10 15 9
3 11 11 12
3 13 18 12
3 14 27 14
3 16 21 16
3 19 24 17
3 25 14 19

11.34
False